num_bands        =   94
num_iter         =  100
dis_num_iter     =  100

iprint           =    2
num_dump_cycles  =   10
num_print_cycles =   10
spinors		 =  true
length_unit      =  bohr
write_hr	 =  true
use_ws_distance  =  true

 !!Valence + conduction bands
 num_wann        =   30
 dis_froz_max    =   9
 dis_win_max     =   18
 dis_froz_min    =   4
 dis_win_min	 =   0
 !! Atom-centred p-orbitals
 begin projections
 Bi:p
 Se:p
 end projections


begin unit_cell_cart
 bohr
3.903143051005907 -2.253480691183878   17.983957266794157
0.000000000000000  4.506961382367756   17.983957266794157
-3.903143051005907 -2.253480691183878   17.983957266794157
end unit_cell_cart


begin atoms_frac
Se 0.2096999880546986 0.2096999880546986 0.2096999880546986
Bi 0.4004999941465037 0.4004999941465037 0.4004999941465037
Se 0.0000000000000000 0.0000000000000000 0.0000000000000000
Bi 0.5995000123884953 0.5995000123884953 0.5995000123884953
Se 0.7902999880546986 0.7902999880546986 0.7902999880546986
end atoms_frac


!! !! To plot the WF interpolated bandstructure
!!restart         =  plot
bands_plot      =  true 
begin kpoint_path
G 0.00000  0.00000  0.00000 L 0.00000  0.00000 -0.50000
L 0.00000  0.00000 -0.50000 X 0.50000  0.50000  0.00000
X 0.50000  0.50000  0.00000 T 0.50000  0.50000  0.50000 
T 0.50000  0.50000  0.50000 G 0.00000  0.00000  0.00000
end kpoint_path


!! !! To plot the WFs
!! restart                =  plot
!! wannier_plot           =  true
!! wannier_plot_supercell =  3
!! wannier_plot_list      =  1,5


mp_grid  =  8 8 8

begin kpoints
  0.00000000  0.00000000  0.00000000 
  0.00000000  0.00000000  0.12500000 
  0.00000000  0.00000000  0.25000000 
  0.00000000  0.00000000  0.37500000 
  0.00000000  0.00000000  0.50000000 
  0.00000000  0.00000000  0.62500000 
  0.00000000  0.00000000  0.75000000 
  0.00000000  0.00000000  0.87500000 
  0.00000000  0.12500000  0.00000000 
  0.00000000  0.12500000  0.12500000 
  0.00000000  0.12500000  0.25000000 
  0.00000000  0.12500000  0.37500000 
  0.00000000  0.12500000  0.50000000 
  0.00000000  0.12500000  0.62500000 
  0.00000000  0.12500000  0.75000000 
  0.00000000  0.12500000  0.87500000 
  0.00000000  0.25000000  0.00000000 
  0.00000000  0.25000000  0.12500000 
  0.00000000  0.25000000  0.25000000 
  0.00000000  0.25000000  0.37500000 
  0.00000000  0.25000000  0.50000000 
  0.00000000  0.25000000  0.62500000 
  0.00000000  0.25000000  0.75000000 
  0.00000000  0.25000000  0.87500000 
  0.00000000  0.37500000  0.00000000 
  0.00000000  0.37500000  0.12500000 
  0.00000000  0.37500000  0.25000000 
  0.00000000  0.37500000  0.37500000 
  0.00000000  0.37500000  0.50000000 
  0.00000000  0.37500000  0.62500000 
  0.00000000  0.37500000  0.75000000 
  0.00000000  0.37500000  0.87500000 
  0.00000000  0.50000000  0.00000000 
  0.00000000  0.50000000  0.12500000 
  0.00000000  0.50000000  0.25000000 
  0.00000000  0.50000000  0.37500000 
  0.00000000  0.50000000  0.50000000 
  0.00000000  0.50000000  0.62500000 
  0.00000000  0.50000000  0.75000000 
  0.00000000  0.50000000  0.87500000 
  0.00000000  0.62500000  0.00000000 
  0.00000000  0.62500000  0.12500000 
  0.00000000  0.62500000  0.25000000 
  0.00000000  0.62500000  0.37500000 
  0.00000000  0.62500000  0.50000000 
  0.00000000  0.62500000  0.62500000 
  0.00000000  0.62500000  0.75000000 
  0.00000000  0.62500000  0.87500000 
  0.00000000  0.75000000  0.00000000 
  0.00000000  0.75000000  0.12500000 
  0.00000000  0.75000000  0.25000000 
  0.00000000  0.75000000  0.37500000 
  0.00000000  0.75000000  0.50000000 
  0.00000000  0.75000000  0.62500000 
  0.00000000  0.75000000  0.75000000 
  0.00000000  0.75000000  0.87500000 
  0.00000000  0.87500000  0.00000000 
  0.00000000  0.87500000  0.12500000 
  0.00000000  0.87500000  0.25000000 
  0.00000000  0.87500000  0.37500000 
  0.00000000  0.87500000  0.50000000 
  0.00000000  0.87500000  0.62500000 
  0.00000000  0.87500000  0.75000000 
  0.00000000  0.87500000  0.87500000 
  0.12500000  0.00000000  0.00000000 
  0.12500000  0.00000000  0.12500000 
  0.12500000  0.00000000  0.25000000 
  0.12500000  0.00000000  0.37500000 
  0.12500000  0.00000000  0.50000000 
  0.12500000  0.00000000  0.62500000 
  0.12500000  0.00000000  0.75000000 
  0.12500000  0.00000000  0.87500000 
  0.12500000  0.12500000  0.00000000 
  0.12500000  0.12500000  0.12500000 
  0.12500000  0.12500000  0.25000000 
  0.12500000  0.12500000  0.37500000 
  0.12500000  0.12500000  0.50000000 
  0.12500000  0.12500000  0.62500000 
  0.12500000  0.12500000  0.75000000 
  0.12500000  0.12500000  0.87500000 
  0.12500000  0.25000000  0.00000000 
  0.12500000  0.25000000  0.12500000 
  0.12500000  0.25000000  0.25000000 
  0.12500000  0.25000000  0.37500000 
  0.12500000  0.25000000  0.50000000 
  0.12500000  0.25000000  0.62500000 
  0.12500000  0.25000000  0.75000000 
  0.12500000  0.25000000  0.87500000 
  0.12500000  0.37500000  0.00000000 
  0.12500000  0.37500000  0.12500000 
  0.12500000  0.37500000  0.25000000 
  0.12500000  0.37500000  0.37500000 
  0.12500000  0.37500000  0.50000000 
  0.12500000  0.37500000  0.62500000 
  0.12500000  0.37500000  0.75000000 
  0.12500000  0.37500000  0.87500000 
  0.12500000  0.50000000  0.00000000 
  0.12500000  0.50000000  0.12500000 
  0.12500000  0.50000000  0.25000000 
  0.12500000  0.50000000  0.37500000 
  0.12500000  0.50000000  0.50000000 
  0.12500000  0.50000000  0.62500000 
  0.12500000  0.50000000  0.75000000 
  0.12500000  0.50000000  0.87500000 
  0.12500000  0.62500000  0.00000000 
  0.12500000  0.62500000  0.12500000 
  0.12500000  0.62500000  0.25000000 
  0.12500000  0.62500000  0.37500000 
  0.12500000  0.62500000  0.50000000 
  0.12500000  0.62500000  0.62500000 
  0.12500000  0.62500000  0.75000000 
  0.12500000  0.62500000  0.87500000 
  0.12500000  0.75000000  0.00000000 
  0.12500000  0.75000000  0.12500000 
  0.12500000  0.75000000  0.25000000 
  0.12500000  0.75000000  0.37500000 
  0.12500000  0.75000000  0.50000000 
  0.12500000  0.75000000  0.62500000 
  0.12500000  0.75000000  0.75000000 
  0.12500000  0.75000000  0.87500000 
  0.12500000  0.87500000  0.00000000 
  0.12500000  0.87500000  0.12500000 
  0.12500000  0.87500000  0.25000000 
  0.12500000  0.87500000  0.37500000 
  0.12500000  0.87500000  0.50000000 
  0.12500000  0.87500000  0.62500000 
  0.12500000  0.87500000  0.75000000 
  0.12500000  0.87500000  0.87500000 
  0.25000000  0.00000000  0.00000000 
  0.25000000  0.00000000  0.12500000 
  0.25000000  0.00000000  0.25000000 
  0.25000000  0.00000000  0.37500000 
  0.25000000  0.00000000  0.50000000 
  0.25000000  0.00000000  0.62500000 
  0.25000000  0.00000000  0.75000000 
  0.25000000  0.00000000  0.87500000 
  0.25000000  0.12500000  0.00000000 
  0.25000000  0.12500000  0.12500000 
  0.25000000  0.12500000  0.25000000 
  0.25000000  0.12500000  0.37500000 
  0.25000000  0.12500000  0.50000000 
  0.25000000  0.12500000  0.62500000 
  0.25000000  0.12500000  0.75000000 
  0.25000000  0.12500000  0.87500000 
  0.25000000  0.25000000  0.00000000 
  0.25000000  0.25000000  0.12500000 
  0.25000000  0.25000000  0.25000000 
  0.25000000  0.25000000  0.37500000 
  0.25000000  0.25000000  0.50000000 
  0.25000000  0.25000000  0.62500000 
  0.25000000  0.25000000  0.75000000 
  0.25000000  0.25000000  0.87500000 
  0.25000000  0.37500000  0.00000000 
  0.25000000  0.37500000  0.12500000 
  0.25000000  0.37500000  0.25000000 
  0.25000000  0.37500000  0.37500000 
  0.25000000  0.37500000  0.50000000 
  0.25000000  0.37500000  0.62500000 
  0.25000000  0.37500000  0.75000000 
  0.25000000  0.37500000  0.87500000 
  0.25000000  0.50000000  0.00000000 
  0.25000000  0.50000000  0.12500000 
  0.25000000  0.50000000  0.25000000 
  0.25000000  0.50000000  0.37500000 
  0.25000000  0.50000000  0.50000000 
  0.25000000  0.50000000  0.62500000 
  0.25000000  0.50000000  0.75000000 
  0.25000000  0.50000000  0.87500000 
  0.25000000  0.62500000  0.00000000 
  0.25000000  0.62500000  0.12500000 
  0.25000000  0.62500000  0.25000000 
  0.25000000  0.62500000  0.37500000 
  0.25000000  0.62500000  0.50000000 
  0.25000000  0.62500000  0.62500000 
  0.25000000  0.62500000  0.75000000 
  0.25000000  0.62500000  0.87500000 
  0.25000000  0.75000000  0.00000000 
  0.25000000  0.75000000  0.12500000 
  0.25000000  0.75000000  0.25000000 
  0.25000000  0.75000000  0.37500000 
  0.25000000  0.75000000  0.50000000 
  0.25000000  0.75000000  0.62500000 
  0.25000000  0.75000000  0.75000000 
  0.25000000  0.75000000  0.87500000 
  0.25000000  0.87500000  0.00000000 
  0.25000000  0.87500000  0.12500000 
  0.25000000  0.87500000  0.25000000 
  0.25000000  0.87500000  0.37500000 
  0.25000000  0.87500000  0.50000000 
  0.25000000  0.87500000  0.62500000 
  0.25000000  0.87500000  0.75000000 
  0.25000000  0.87500000  0.87500000 
  0.37500000  0.00000000  0.00000000 
  0.37500000  0.00000000  0.12500000 
  0.37500000  0.00000000  0.25000000 
  0.37500000  0.00000000  0.37500000 
  0.37500000  0.00000000  0.50000000 
  0.37500000  0.00000000  0.62500000 
  0.37500000  0.00000000  0.75000000 
  0.37500000  0.00000000  0.87500000 
  0.37500000  0.12500000  0.00000000 
  0.37500000  0.12500000  0.12500000 
  0.37500000  0.12500000  0.25000000 
  0.37500000  0.12500000  0.37500000 
  0.37500000  0.12500000  0.50000000 
  0.37500000  0.12500000  0.62500000 
  0.37500000  0.12500000  0.75000000 
  0.37500000  0.12500000  0.87500000 
  0.37500000  0.25000000  0.00000000 
  0.37500000  0.25000000  0.12500000 
  0.37500000  0.25000000  0.25000000 
  0.37500000  0.25000000  0.37500000 
  0.37500000  0.25000000  0.50000000 
  0.37500000  0.25000000  0.62500000 
  0.37500000  0.25000000  0.75000000 
  0.37500000  0.25000000  0.87500000 
  0.37500000  0.37500000  0.00000000 
  0.37500000  0.37500000  0.12500000 
  0.37500000  0.37500000  0.25000000 
  0.37500000  0.37500000  0.37500000 
  0.37500000  0.37500000  0.50000000 
  0.37500000  0.37500000  0.62500000 
  0.37500000  0.37500000  0.75000000 
  0.37500000  0.37500000  0.87500000 
  0.37500000  0.50000000  0.00000000 
  0.37500000  0.50000000  0.12500000 
  0.37500000  0.50000000  0.25000000 
  0.37500000  0.50000000  0.37500000 
  0.37500000  0.50000000  0.50000000 
  0.37500000  0.50000000  0.62500000 
  0.37500000  0.50000000  0.75000000 
  0.37500000  0.50000000  0.87500000 
  0.37500000  0.62500000  0.00000000 
  0.37500000  0.62500000  0.12500000 
  0.37500000  0.62500000  0.25000000 
  0.37500000  0.62500000  0.37500000 
  0.37500000  0.62500000  0.50000000 
  0.37500000  0.62500000  0.62500000 
  0.37500000  0.62500000  0.75000000 
  0.37500000  0.62500000  0.87500000 
  0.37500000  0.75000000  0.00000000 
  0.37500000  0.75000000  0.12500000 
  0.37500000  0.75000000  0.25000000 
  0.37500000  0.75000000  0.37500000 
  0.37500000  0.75000000  0.50000000 
  0.37500000  0.75000000  0.62500000 
  0.37500000  0.75000000  0.75000000 
  0.37500000  0.75000000  0.87500000 
  0.37500000  0.87500000  0.00000000 
  0.37500000  0.87500000  0.12500000 
  0.37500000  0.87500000  0.25000000 
  0.37500000  0.87500000  0.37500000 
  0.37500000  0.87500000  0.50000000 
  0.37500000  0.87500000  0.62500000 
  0.37500000  0.87500000  0.75000000 
  0.37500000  0.87500000  0.87500000 
  0.50000000  0.00000000  0.00000000 
  0.50000000  0.00000000  0.12500000 
  0.50000000  0.00000000  0.25000000 
  0.50000000  0.00000000  0.37500000 
  0.50000000  0.00000000  0.50000000 
  0.50000000  0.00000000  0.62500000 
  0.50000000  0.00000000  0.75000000 
  0.50000000  0.00000000  0.87500000 
  0.50000000  0.12500000  0.00000000 
  0.50000000  0.12500000  0.12500000 
  0.50000000  0.12500000  0.25000000 
  0.50000000  0.12500000  0.37500000 
  0.50000000  0.12500000  0.50000000 
  0.50000000  0.12500000  0.62500000 
  0.50000000  0.12500000  0.75000000 
  0.50000000  0.12500000  0.87500000 
  0.50000000  0.25000000  0.00000000 
  0.50000000  0.25000000  0.12500000 
  0.50000000  0.25000000  0.25000000 
  0.50000000  0.25000000  0.37500000 
  0.50000000  0.25000000  0.50000000 
  0.50000000  0.25000000  0.62500000 
  0.50000000  0.25000000  0.75000000 
  0.50000000  0.25000000  0.87500000 
  0.50000000  0.37500000  0.00000000 
  0.50000000  0.37500000  0.12500000 
  0.50000000  0.37500000  0.25000000 
  0.50000000  0.37500000  0.37500000 
  0.50000000  0.37500000  0.50000000 
  0.50000000  0.37500000  0.62500000 
  0.50000000  0.37500000  0.75000000 
  0.50000000  0.37500000  0.87500000 
  0.50000000  0.50000000  0.00000000 
  0.50000000  0.50000000  0.12500000 
  0.50000000  0.50000000  0.25000000 
  0.50000000  0.50000000  0.37500000 
  0.50000000  0.50000000  0.50000000 
  0.50000000  0.50000000  0.62500000 
  0.50000000  0.50000000  0.75000000 
  0.50000000  0.50000000  0.87500000 
  0.50000000  0.62500000  0.00000000 
  0.50000000  0.62500000  0.12500000 
  0.50000000  0.62500000  0.25000000 
  0.50000000  0.62500000  0.37500000 
  0.50000000  0.62500000  0.50000000 
  0.50000000  0.62500000  0.62500000 
  0.50000000  0.62500000  0.75000000 
  0.50000000  0.62500000  0.87500000 
  0.50000000  0.75000000  0.00000000 
  0.50000000  0.75000000  0.12500000 
  0.50000000  0.75000000  0.25000000 
  0.50000000  0.75000000  0.37500000 
  0.50000000  0.75000000  0.50000000 
  0.50000000  0.75000000  0.62500000 
  0.50000000  0.75000000  0.75000000 
  0.50000000  0.75000000  0.87500000 
  0.50000000  0.87500000  0.00000000 
  0.50000000  0.87500000  0.12500000 
  0.50000000  0.87500000  0.25000000 
  0.50000000  0.87500000  0.37500000 
  0.50000000  0.87500000  0.50000000 
  0.50000000  0.87500000  0.62500000 
  0.50000000  0.87500000  0.75000000 
  0.50000000  0.87500000  0.87500000 
  0.62500000  0.00000000  0.00000000 
  0.62500000  0.00000000  0.12500000 
  0.62500000  0.00000000  0.25000000 
  0.62500000  0.00000000  0.37500000 
  0.62500000  0.00000000  0.50000000 
  0.62500000  0.00000000  0.62500000 
  0.62500000  0.00000000  0.75000000 
  0.62500000  0.00000000  0.87500000 
  0.62500000  0.12500000  0.00000000 
  0.62500000  0.12500000  0.12500000 
  0.62500000  0.12500000  0.25000000 
  0.62500000  0.12500000  0.37500000 
  0.62500000  0.12500000  0.50000000 
  0.62500000  0.12500000  0.62500000 
  0.62500000  0.12500000  0.75000000 
  0.62500000  0.12500000  0.87500000 
  0.62500000  0.25000000  0.00000000 
  0.62500000  0.25000000  0.12500000 
  0.62500000  0.25000000  0.25000000 
  0.62500000  0.25000000  0.37500000 
  0.62500000  0.25000000  0.50000000 
  0.62500000  0.25000000  0.62500000 
  0.62500000  0.25000000  0.75000000 
  0.62500000  0.25000000  0.87500000 
  0.62500000  0.37500000  0.00000000 
  0.62500000  0.37500000  0.12500000 
  0.62500000  0.37500000  0.25000000 
  0.62500000  0.37500000  0.37500000 
  0.62500000  0.37500000  0.50000000 
  0.62500000  0.37500000  0.62500000 
  0.62500000  0.37500000  0.75000000 
  0.62500000  0.37500000  0.87500000 
  0.62500000  0.50000000  0.00000000 
  0.62500000  0.50000000  0.12500000 
  0.62500000  0.50000000  0.25000000 
  0.62500000  0.50000000  0.37500000 
  0.62500000  0.50000000  0.50000000 
  0.62500000  0.50000000  0.62500000 
  0.62500000  0.50000000  0.75000000 
  0.62500000  0.50000000  0.87500000 
  0.62500000  0.62500000  0.00000000 
  0.62500000  0.62500000  0.12500000 
  0.62500000  0.62500000  0.25000000 
  0.62500000  0.62500000  0.37500000 
  0.62500000  0.62500000  0.50000000 
  0.62500000  0.62500000  0.62500000 
  0.62500000  0.62500000  0.75000000 
  0.62500000  0.62500000  0.87500000 
  0.62500000  0.75000000  0.00000000 
  0.62500000  0.75000000  0.12500000 
  0.62500000  0.75000000  0.25000000 
  0.62500000  0.75000000  0.37500000 
  0.62500000  0.75000000  0.50000000 
  0.62500000  0.75000000  0.62500000 
  0.62500000  0.75000000  0.75000000 
  0.62500000  0.75000000  0.87500000 
  0.62500000  0.87500000  0.00000000 
  0.62500000  0.87500000  0.12500000 
  0.62500000  0.87500000  0.25000000 
  0.62500000  0.87500000  0.37500000 
  0.62500000  0.87500000  0.50000000 
  0.62500000  0.87500000  0.62500000 
  0.62500000  0.87500000  0.75000000 
  0.62500000  0.87500000  0.87500000 
  0.75000000  0.00000000  0.00000000 
  0.75000000  0.00000000  0.12500000 
  0.75000000  0.00000000  0.25000000 
  0.75000000  0.00000000  0.37500000 
  0.75000000  0.00000000  0.50000000 
  0.75000000  0.00000000  0.62500000 
  0.75000000  0.00000000  0.75000000 
  0.75000000  0.00000000  0.87500000 
  0.75000000  0.12500000  0.00000000 
  0.75000000  0.12500000  0.12500000 
  0.75000000  0.12500000  0.25000000 
  0.75000000  0.12500000  0.37500000 
  0.75000000  0.12500000  0.50000000 
  0.75000000  0.12500000  0.62500000 
  0.75000000  0.12500000  0.75000000 
  0.75000000  0.12500000  0.87500000 
  0.75000000  0.25000000  0.00000000 
  0.75000000  0.25000000  0.12500000 
  0.75000000  0.25000000  0.25000000 
  0.75000000  0.25000000  0.37500000 
  0.75000000  0.25000000  0.50000000 
  0.75000000  0.25000000  0.62500000 
  0.75000000  0.25000000  0.75000000 
  0.75000000  0.25000000  0.87500000 
  0.75000000  0.37500000  0.00000000 
  0.75000000  0.37500000  0.12500000 
  0.75000000  0.37500000  0.25000000 
  0.75000000  0.37500000  0.37500000 
  0.75000000  0.37500000  0.50000000 
  0.75000000  0.37500000  0.62500000 
  0.75000000  0.37500000  0.75000000 
  0.75000000  0.37500000  0.87500000 
  0.75000000  0.50000000  0.00000000 
  0.75000000  0.50000000  0.12500000 
  0.75000000  0.50000000  0.25000000 
  0.75000000  0.50000000  0.37500000 
  0.75000000  0.50000000  0.50000000 
  0.75000000  0.50000000  0.62500000 
  0.75000000  0.50000000  0.75000000 
  0.75000000  0.50000000  0.87500000 
  0.75000000  0.62500000  0.00000000 
  0.75000000  0.62500000  0.12500000 
  0.75000000  0.62500000  0.25000000 
  0.75000000  0.62500000  0.37500000 
  0.75000000  0.62500000  0.50000000 
  0.75000000  0.62500000  0.62500000 
  0.75000000  0.62500000  0.75000000 
  0.75000000  0.62500000  0.87500000 
  0.75000000  0.75000000  0.00000000 
  0.75000000  0.75000000  0.12500000 
  0.75000000  0.75000000  0.25000000 
  0.75000000  0.75000000  0.37500000 
  0.75000000  0.75000000  0.50000000 
  0.75000000  0.75000000  0.62500000 
  0.75000000  0.75000000  0.75000000 
  0.75000000  0.75000000  0.87500000 
  0.75000000  0.87500000  0.00000000 
  0.75000000  0.87500000  0.12500000 
  0.75000000  0.87500000  0.25000000 
  0.75000000  0.87500000  0.37500000 
  0.75000000  0.87500000  0.50000000 
  0.75000000  0.87500000  0.62500000 
  0.75000000  0.87500000  0.75000000 
  0.75000000  0.87500000  0.87500000 
  0.87500000  0.00000000  0.00000000 
  0.87500000  0.00000000  0.12500000 
  0.87500000  0.00000000  0.25000000 
  0.87500000  0.00000000  0.37500000 
  0.87500000  0.00000000  0.50000000 
  0.87500000  0.00000000  0.62500000 
  0.87500000  0.00000000  0.75000000 
  0.87500000  0.00000000  0.87500000 
  0.87500000  0.12500000  0.00000000 
  0.87500000  0.12500000  0.12500000 
  0.87500000  0.12500000  0.25000000 
  0.87500000  0.12500000  0.37500000 
  0.87500000  0.12500000  0.50000000 
  0.87500000  0.12500000  0.62500000 
  0.87500000  0.12500000  0.75000000 
  0.87500000  0.12500000  0.87500000 
  0.87500000  0.25000000  0.00000000 
  0.87500000  0.25000000  0.12500000 
  0.87500000  0.25000000  0.25000000 
  0.87500000  0.25000000  0.37500000 
  0.87500000  0.25000000  0.50000000 
  0.87500000  0.25000000  0.62500000 
  0.87500000  0.25000000  0.75000000 
  0.87500000  0.25000000  0.87500000 
  0.87500000  0.37500000  0.00000000 
  0.87500000  0.37500000  0.12500000 
  0.87500000  0.37500000  0.25000000 
  0.87500000  0.37500000  0.37500000 
  0.87500000  0.37500000  0.50000000 
  0.87500000  0.37500000  0.62500000 
  0.87500000  0.37500000  0.75000000 
  0.87500000  0.37500000  0.87500000 
  0.87500000  0.50000000  0.00000000 
  0.87500000  0.50000000  0.12500000 
  0.87500000  0.50000000  0.25000000 
  0.87500000  0.50000000  0.37500000 
  0.87500000  0.50000000  0.50000000 
  0.87500000  0.50000000  0.62500000 
  0.87500000  0.50000000  0.75000000 
  0.87500000  0.50000000  0.87500000 
  0.87500000  0.62500000  0.00000000 
  0.87500000  0.62500000  0.12500000 
  0.87500000  0.62500000  0.25000000 
  0.87500000  0.62500000  0.37500000 
  0.87500000  0.62500000  0.50000000 
  0.87500000  0.62500000  0.62500000 
  0.87500000  0.62500000  0.75000000 
  0.87500000  0.62500000  0.87500000 
  0.87500000  0.75000000  0.00000000 
  0.87500000  0.75000000  0.12500000 
  0.87500000  0.75000000  0.25000000 
  0.87500000  0.75000000  0.37500000 
  0.87500000  0.75000000  0.50000000 
  0.87500000  0.75000000  0.62500000 
  0.87500000  0.75000000  0.75000000 
  0.87500000  0.75000000  0.87500000 
  0.87500000  0.87500000  0.00000000 
  0.87500000  0.87500000  0.12500000 
  0.87500000  0.87500000  0.25000000 
  0.87500000  0.87500000  0.37500000 
  0.87500000  0.87500000  0.50000000 
  0.87500000  0.87500000  0.62500000 
  0.87500000  0.87500000  0.75000000 
  0.87500000  0.87500000  0.87500000 
end kpoints
