num_bands        =   56
num_iter         =  100
dis_num_iter     =  100

iprint           =    2
num_dump_cycles  =   10
num_print_cycles =   10
spinors		 =  true
length_unit      =  bohr
write_hr	 =  true
use_ws_distance  =  false
guiding_centres  =  true


 num_wann        =   32
 dis_froz_max    =   16
 dis_win_max     =   24
 dis_froz_min    =   0
 dis_win_min	 =   0
 dis_conv_tol   = 1.E-12

 begin projections
 Ta:d
 As:p
 end projections


begin unit_cell_cart
 bohr
3.247494345065060   -3.247494345065060  11.01332385396518
3.247494345065060    3.247494345065060  11.01332385396518
-3.247494345065060  -3.247494345065060  11.01332385396518
end unit_cell_cart


begin atoms_frac
Ta 0.000000000000000  0.0000000000000000  0.0000000000000000
Ta 0.500000000000000  0.7500000000000000  0.2500000000000000
As 0.000000000000000  0.4170000000000000  0.4170000000000000
As 0.500000000000000  0.1670000000000000  0.6670000000000000
end atoms_frac


!! !! To plot the WF interpolated bandstructure
!!restart         =  plot
bands_plot      =  true 
begin kpoint_path
G   0.00000  0.00000  0.00000  S  -0.27176 -0.27176  0.27176
S  -0.27176 -0.27176  0.27176  N   0.00000  0.00000  0.50000
N   0.00000  0.00000  0.50000  S1  0.27176  0.27176  0.72823 
S1  0.27176  0.27176  0.72823  Z   0.50000  0.50000  0.50000
Z   0.50000  0.50000  0.50000  G   0.00000  0.00000  0.00000
G   0.00000  0.00000  0.00000  X   0.00000 -0.50000  0.50000
end kpoint_path


!! !! To plot the WFs
!! restart                =  plot
!! wannier_plot           =  true
!! wannier_plot_supercell =  3
!! wannier_plot_list      =  1,5


mp_grid  =  8 8 8

begin kpoints
   0.00000000    0.00000000    0.00000000
   0.00000000    0.00000000    0.12500000
   0.00000000    0.00000000    0.25000000
   0.00000000    0.00000000    0.37500000
   0.00000000    0.00000000    0.50000000
   0.00000000    0.00000000    0.62500000
   0.00000000    0.00000000    0.75000000
   0.00000000    0.00000000    0.87500000
   0.00000000    0.12500000    0.00000000
   0.00000000    0.12500000    0.12500000
   0.00000000    0.12500000    0.25000000
   0.00000000    0.12500000    0.37500000
   0.00000000    0.12500000    0.50000000
   0.00000000    0.12500000    0.62500000
   0.00000000    0.12500000    0.75000000
   0.00000000    0.12500000    0.87500000
   0.00000000    0.25000000    0.00000000
   0.00000000    0.25000000    0.12500000
   0.00000000    0.25000000    0.25000000
   0.00000000    0.25000000    0.37500000
   0.00000000    0.25000000    0.50000000
   0.00000000    0.25000000    0.62500000
   0.00000000    0.25000000    0.75000000
   0.00000000    0.25000000    0.87500000
   0.00000000    0.37500000    0.00000000
   0.00000000    0.37500000    0.12500000
   0.00000000    0.37500000    0.25000000
   0.00000000    0.37500000    0.37500000
   0.00000000    0.37500000    0.50000000
   0.00000000    0.37500000    0.62500000
   0.00000000    0.37500000    0.75000000
   0.00000000    0.37500000    0.87500000
   0.00000000    0.50000000    0.00000000
   0.00000000    0.50000000    0.12500000
   0.00000000    0.50000000    0.25000000
   0.00000000    0.50000000    0.37500000
   0.00000000    0.50000000    0.50000000
   0.00000000    0.50000000    0.62500000
   0.00000000    0.50000000    0.75000000
   0.00000000    0.50000000    0.87500000
   0.00000000    0.62500000    0.00000000
    0.00000000    0.62500000    0.12500000
    0.00000000    0.62500000    0.25000000
    0.00000000    0.62500000    0.37500000
    0.00000000    0.62500000    0.50000000
    0.00000000    0.62500000    0.62500000
    0.00000000    0.62500000    0.75000000
    0.00000000    0.62500000    0.87500000
    0.00000000    0.75000000    0.00000000
    0.00000000    0.75000000    0.12500000
    0.00000000    0.75000000    0.25000000
    0.00000000    0.75000000    0.37500000
    0.00000000    0.75000000    0.50000000
    0.00000000    0.75000000    0.62500000
    0.00000000    0.75000000    0.75000000
    0.00000000    0.75000000    0.87500000
    0.00000000    0.87500000    0.00000000
    0.00000000    0.87500000    0.12500000
    0.00000000    0.87500000    0.25000000
    0.00000000    0.87500000    0.37500000
    0.00000000    0.87500000    0.50000000
    0.00000000    0.87500000    0.62500000
    0.00000000    0.87500000    0.75000000
    0.00000000    0.87500000    0.87500000
    0.12500000    0.00000000    0.00000000
    0.12500000    0.00000000    0.12500000
    0.12500000    0.00000000    0.25000000
    0.12500000    0.00000000    0.37500000
    0.12500000    0.00000000    0.50000000
    0.12500000    0.00000000    0.62500000
    0.12500000    0.00000000    0.75000000
    0.12500000    0.00000000    0.87500000
    0.12500000    0.12500000    0.00000000
    0.12500000    0.12500000    0.12500000
    0.12500000    0.12500000    0.25000000
    0.12500000    0.12500000    0.37500000
    0.12500000    0.12500000    0.50000000
    0.12500000    0.12500000    0.62500000
    0.12500000    0.12500000    0.75000000
    0.12500000    0.12500000    0.87500000
    0.12500000    0.25000000    0.00000000
    0.12500000    0.25000000    0.12500000
    0.12500000    0.25000000    0.25000000
    0.12500000    0.25000000    0.37500000
    0.12500000    0.25000000    0.50000000
    0.12500000    0.25000000    0.62500000
    0.12500000    0.25000000    0.75000000
    0.12500000    0.25000000    0.87500000
    0.12500000    0.37500000    0.00000000
    0.12500000    0.37500000    0.12500000
    0.12500000    0.37500000    0.25000000
    0.12500000    0.37500000    0.37500000
    0.12500000    0.37500000    0.50000000
    0.12500000    0.37500000    0.62500000
    0.12500000    0.37500000    0.75000000
    0.12500000    0.37500000    0.87500000
    0.12500000    0.50000000    0.00000000
    0.12500000    0.50000000    0.12500000
    0.12500000    0.50000000    0.25000000
    0.12500000    0.50000000    0.37500000
    0.12500000    0.50000000    0.50000000
    0.12500000    0.50000000    0.62500000
    0.12500000    0.50000000    0.75000000
    0.12500000    0.50000000    0.87500000
    0.12500000    0.62500000    0.00000000
    0.12500000    0.62500000    0.12500000
    0.12500000    0.62500000    0.25000000
    0.12500000    0.62500000    0.37500000
    0.12500000    0.62500000    0.50000000
    0.12500000    0.62500000    0.62500000
    0.12500000    0.62500000    0.75000000
    0.12500000    0.62500000    0.87500000
    0.12500000    0.75000000    0.00000000
    0.12500000    0.75000000    0.12500000
    0.12500000    0.75000000    0.25000000
    0.12500000    0.75000000    0.37500000
    0.12500000    0.75000000    0.50000000
    0.12500000    0.75000000    0.62500000
    0.12500000    0.75000000    0.75000000
    0.12500000    0.75000000    0.87500000
    0.12500000    0.87500000    0.00000000
    0.12500000    0.87500000    0.12500000
    0.12500000    0.87500000    0.25000000
    0.12500000    0.87500000    0.37500000
    0.12500000    0.87500000    0.50000000
    0.12500000    0.87500000    0.62500000
    0.12500000    0.87500000    0.75000000
    0.12500000    0.87500000    0.87500000
    0.25000000    0.00000000    0.00000000
    0.25000000    0.00000000    0.12500000
    0.25000000    0.00000000    0.25000000
    0.25000000    0.00000000    0.37500000
    0.25000000    0.00000000    0.50000000
    0.25000000    0.00000000    0.62500000
    0.25000000    0.00000000    0.75000000
    0.25000000    0.00000000    0.87500000
    0.25000000    0.12500000    0.00000000
    0.25000000    0.12500000    0.12500000
    0.25000000    0.12500000    0.25000000
    0.25000000    0.12500000    0.37500000
    0.25000000    0.12500000    0.50000000
    0.25000000    0.12500000    0.62500000
    0.25000000    0.12500000    0.75000000
    0.25000000    0.12500000    0.87500000
    0.25000000    0.25000000    0.00000000
    0.25000000    0.25000000    0.12500000
    0.25000000    0.25000000    0.25000000
    0.25000000    0.25000000    0.37500000
    0.25000000    0.25000000    0.50000000
    0.25000000    0.25000000    0.62500000
    0.25000000    0.25000000    0.75000000
    0.25000000    0.25000000    0.87500000
    0.25000000    0.37500000    0.00000000
    0.25000000    0.37500000    0.12500000
    0.25000000    0.37500000    0.25000000
    0.25000000    0.37500000    0.37500000
    0.25000000    0.37500000    0.50000000
    0.25000000    0.37500000    0.62500000
    0.25000000    0.37500000    0.75000000
    0.25000000    0.37500000    0.87500000
    0.25000000    0.50000000    0.00000000
    0.25000000    0.50000000    0.12500000
    0.25000000    0.50000000    0.25000000
    0.25000000    0.50000000    0.37500000
    0.25000000    0.50000000    0.50000000
    0.25000000    0.50000000    0.62500000
    0.25000000    0.50000000    0.75000000
    0.25000000    0.50000000    0.87500000
    0.25000000    0.62500000    0.00000000
    0.25000000    0.62500000    0.12500000
    0.25000000    0.62500000    0.25000000
    0.25000000    0.62500000    0.37500000
    0.25000000    0.62500000    0.50000000
    0.25000000    0.62500000    0.62500000
    0.25000000    0.62500000    0.75000000
    0.25000000    0.62500000    0.87500000
    0.25000000    0.75000000    0.00000000
    0.25000000    0.75000000    0.12500000
    0.25000000    0.75000000    0.25000000
    0.25000000    0.75000000    0.37500000
    0.25000000    0.75000000    0.50000000
    0.25000000    0.75000000    0.62500000
    0.25000000    0.75000000    0.75000000
    0.25000000    0.75000000    0.87500000
    0.25000000    0.87500000    0.00000000
    0.25000000    0.87500000    0.12500000
    0.25000000    0.87500000    0.25000000
    0.25000000    0.87500000    0.37500000
    0.25000000    0.87500000    0.50000000
    0.25000000    0.87500000    0.62500000
    0.25000000    0.87500000    0.75000000
    0.25000000    0.87500000    0.87500000
    0.37500000    0.00000000    0.00000000
    0.37500000    0.00000000    0.12500000
    0.37500000    0.00000000    0.25000000
    0.37500000    0.00000000    0.37500000
    0.37500000    0.00000000    0.50000000
    0.37500000    0.00000000    0.62500000
    0.37500000    0.00000000    0.75000000
    0.37500000    0.00000000    0.87500000
    0.37500000    0.12500000    0.00000000
    0.37500000    0.12500000    0.12500000
    0.37500000    0.12500000    0.25000000
    0.37500000    0.12500000    0.37500000
    0.37500000    0.12500000    0.50000000
    0.37500000    0.12500000    0.62500000
    0.37500000    0.12500000    0.75000000
    0.37500000    0.12500000    0.87500000
    0.37500000    0.25000000    0.00000000
    0.37500000    0.25000000    0.12500000
    0.37500000    0.25000000    0.25000000
    0.37500000    0.25000000    0.37500000
    0.37500000    0.25000000    0.50000000
    0.37500000    0.25000000    0.62500000
    0.37500000    0.25000000    0.75000000
    0.37500000    0.25000000    0.87500000
    0.37500000    0.37500000    0.00000000
    0.37500000    0.37500000    0.12500000
    0.37500000    0.37500000    0.25000000
    0.37500000    0.37500000    0.37500000
    0.37500000    0.37500000    0.50000000
    0.37500000    0.37500000    0.62500000
    0.37500000    0.37500000    0.75000000
    0.37500000    0.37500000    0.87500000
    0.37500000    0.50000000    0.00000000
    0.37500000    0.50000000    0.12500000
    0.37500000    0.50000000    0.25000000
    0.37500000    0.50000000    0.37500000
    0.37500000    0.50000000    0.50000000
    0.37500000    0.50000000    0.62500000
    0.37500000    0.50000000    0.75000000
    0.37500000    0.50000000    0.87500000
    0.37500000    0.62500000    0.00000000
    0.37500000    0.62500000    0.12500000
    0.37500000    0.62500000    0.25000000
    0.37500000    0.62500000    0.37500000
    0.37500000    0.62500000    0.50000000
    0.37500000    0.62500000    0.62500000
    0.37500000    0.62500000    0.75000000
    0.37500000    0.62500000    0.87500000
    0.37500000    0.75000000    0.00000000
    0.37500000    0.75000000    0.12500000
    0.37500000    0.75000000    0.25000000
    0.37500000    0.75000000    0.37500000
    0.37500000    0.75000000    0.50000000
    0.37500000    0.75000000    0.62500000
    0.37500000    0.75000000    0.75000000
    0.37500000    0.75000000    0.87500000
    0.37500000    0.87500000    0.00000000
    0.37500000    0.87500000    0.12500000
    0.37500000    0.87500000    0.25000000
    0.37500000    0.87500000    0.37500000
    0.37500000    0.87500000    0.50000000
    0.37500000    0.87500000    0.62500000
    0.37500000    0.87500000    0.75000000
    0.37500000    0.87500000    0.87500000
    0.50000000    0.00000000    0.00000000
    0.50000000    0.00000000    0.12500000
    0.50000000    0.00000000    0.25000000
    0.50000000    0.00000000    0.37500000
    0.50000000    0.00000000    0.50000000
    0.50000000    0.00000000    0.62500000
    0.50000000    0.00000000    0.75000000
    0.50000000    0.00000000    0.87500000
    0.50000000    0.12500000    0.00000000
    0.50000000    0.12500000    0.12500000
    0.50000000    0.12500000    0.25000000
    0.50000000    0.12500000    0.37500000
    0.50000000    0.12500000    0.50000000
    0.50000000    0.12500000    0.62500000
    0.50000000    0.12500000    0.75000000
    0.50000000    0.12500000    0.87500000
    0.50000000    0.25000000    0.00000000
    0.50000000    0.25000000    0.12500000
    0.50000000    0.25000000    0.25000000
    0.50000000    0.25000000    0.37500000
    0.50000000    0.25000000    0.50000000
    0.50000000    0.25000000    0.62500000
    0.50000000    0.25000000    0.75000000
    0.50000000    0.25000000    0.87500000
    0.50000000    0.37500000    0.00000000
    0.50000000    0.37500000    0.12500000
    0.50000000    0.37500000    0.25000000
    0.50000000    0.37500000    0.37500000
    0.50000000    0.37500000    0.50000000
    0.50000000    0.37500000    0.62500000
    0.50000000    0.37500000    0.75000000
    0.50000000    0.37500000    0.87500000
    0.50000000    0.50000000    0.00000000
    0.50000000    0.50000000    0.12500000
    0.50000000    0.50000000    0.25000000
    0.50000000    0.50000000    0.37500000
    0.50000000    0.50000000    0.50000000
    0.50000000    0.50000000    0.62500000
    0.50000000    0.50000000    0.75000000
    0.50000000    0.50000000    0.87500000
    0.50000000    0.62500000    0.00000000
    0.50000000    0.62500000    0.12500000
    0.50000000    0.62500000    0.25000000
    0.50000000    0.62500000    0.37500000
    0.50000000    0.62500000    0.50000000
    0.50000000    0.62500000    0.62500000
    0.50000000    0.62500000    0.75000000
    0.50000000    0.62500000    0.87500000
    0.50000000    0.75000000    0.00000000
    0.50000000    0.75000000    0.12500000
    0.50000000    0.75000000    0.25000000
    0.50000000    0.75000000    0.37500000
    0.50000000    0.75000000    0.50000000
    0.50000000    0.75000000    0.62500000
    0.50000000    0.75000000    0.75000000
    0.50000000    0.75000000    0.87500000
    0.50000000    0.87500000    0.00000000
    0.50000000    0.87500000    0.12500000
    0.50000000    0.87500000    0.25000000
    0.50000000    0.87500000    0.37500000
    0.50000000    0.87500000    0.50000000
    0.50000000    0.87500000    0.62500000
    0.50000000    0.87500000    0.75000000
    0.50000000    0.87500000    0.87500000
    0.62500000    0.00000000    0.00000000
    0.62500000    0.00000000    0.12500000
    0.62500000    0.00000000    0.25000000
    0.62500000    0.00000000    0.37500000
    0.62500000    0.00000000    0.50000000
    0.62500000    0.00000000    0.62500000
    0.62500000    0.00000000    0.75000000
    0.62500000    0.00000000    0.87500000
    0.62500000    0.12500000    0.00000000
    0.62500000    0.12500000    0.12500000
    0.62500000    0.12500000    0.25000000
    0.62500000    0.12500000    0.37500000
    0.62500000    0.12500000    0.50000000
    0.62500000    0.12500000    0.62500000
    0.62500000    0.12500000    0.75000000
    0.62500000    0.12500000    0.87500000
    0.62500000    0.25000000    0.00000000
    0.62500000    0.25000000    0.12500000
    0.62500000    0.25000000    0.25000000
    0.62500000    0.25000000    0.37500000
    0.62500000    0.25000000    0.50000000
    0.62500000    0.25000000    0.62500000
    0.62500000    0.25000000    0.75000000
    0.62500000    0.25000000    0.87500000
    0.62500000    0.37500000    0.00000000
    0.62500000    0.37500000    0.12500000
    0.62500000    0.37500000    0.25000000
    0.62500000    0.37500000    0.37500000
    0.62500000    0.37500000    0.50000000
    0.62500000    0.37500000    0.62500000
    0.62500000    0.37500000    0.75000000
    0.62500000    0.37500000    0.87500000
    0.62500000    0.50000000    0.00000000
    0.62500000    0.50000000    0.12500000
    0.62500000    0.50000000    0.25000000
    0.62500000    0.50000000    0.37500000
    0.62500000    0.50000000    0.50000000
    0.62500000    0.50000000    0.62500000
    0.62500000    0.50000000    0.75000000
    0.62500000    0.50000000    0.87500000
    0.62500000    0.62500000    0.00000000
    0.62500000    0.62500000    0.12500000
    0.62500000    0.62500000    0.25000000
    0.62500000    0.62500000    0.37500000
    0.62500000    0.62500000    0.50000000
    0.62500000    0.62500000    0.62500000
    0.62500000    0.62500000    0.75000000
    0.62500000    0.62500000    0.87500000
    0.62500000    0.75000000    0.00000000
    0.62500000    0.75000000    0.12500000
    0.62500000    0.75000000    0.25000000
    0.62500000    0.75000000    0.37500000
    0.62500000    0.75000000    0.50000000
    0.62500000    0.75000000    0.62500000
    0.62500000    0.75000000    0.75000000
    0.62500000    0.75000000    0.87500000
    0.62500000    0.87500000    0.00000000
    0.62500000    0.87500000    0.12500000
    0.62500000    0.87500000    0.25000000
    0.62500000    0.87500000    0.37500000
    0.62500000    0.87500000    0.50000000
    0.62500000    0.87500000    0.62500000
    0.62500000    0.87500000    0.75000000
    0.62500000    0.87500000    0.87500000
    0.75000000    0.00000000    0.00000000
    0.75000000    0.00000000    0.12500000
    0.75000000    0.00000000    0.25000000
    0.75000000    0.00000000    0.37500000
    0.75000000    0.00000000    0.50000000
    0.75000000    0.00000000    0.62500000
    0.75000000    0.00000000    0.75000000
    0.75000000    0.00000000    0.87500000
    0.75000000    0.12500000    0.00000000
    0.75000000    0.12500000    0.12500000
    0.75000000    0.12500000    0.25000000
    0.75000000    0.12500000    0.37500000
    0.75000000    0.12500000    0.50000000
    0.75000000    0.12500000    0.62500000
    0.75000000    0.12500000    0.75000000
    0.75000000    0.12500000    0.87500000
    0.75000000    0.25000000    0.00000000
    0.75000000    0.25000000    0.12500000
    0.75000000    0.25000000    0.25000000
    0.75000000    0.25000000    0.37500000
    0.75000000    0.25000000    0.50000000
    0.75000000    0.25000000    0.62500000
    0.75000000    0.25000000    0.75000000
    0.75000000    0.25000000    0.87500000
    0.75000000    0.37500000    0.00000000
    0.75000000    0.37500000    0.12500000
    0.75000000    0.37500000    0.25000000
    0.75000000    0.37500000    0.37500000
    0.75000000    0.37500000    0.50000000
    0.75000000    0.37500000    0.62500000
    0.75000000    0.37500000    0.75000000
    0.75000000    0.37500000    0.87500000
    0.75000000    0.50000000    0.00000000
    0.75000000    0.50000000    0.12500000
    0.75000000    0.50000000    0.25000000
    0.75000000    0.50000000    0.37500000
    0.75000000    0.50000000    0.50000000
    0.75000000    0.50000000    0.62500000
    0.75000000    0.50000000    0.75000000
    0.75000000    0.50000000    0.87500000
    0.75000000    0.62500000    0.00000000
    0.75000000    0.62500000    0.12500000
    0.75000000    0.62500000    0.25000000
    0.75000000    0.62500000    0.37500000
    0.75000000    0.62500000    0.50000000
    0.75000000    0.62500000    0.62500000
    0.75000000    0.62500000    0.75000000
    0.75000000    0.62500000    0.87500000
    0.75000000    0.75000000    0.00000000
    0.75000000    0.75000000    0.12500000
    0.75000000    0.75000000    0.25000000
    0.75000000    0.75000000    0.37500000
    0.75000000    0.75000000    0.50000000
    0.75000000    0.75000000    0.62500000
    0.75000000    0.75000000    0.75000000
    0.75000000    0.75000000    0.87500000
    0.75000000    0.87500000    0.00000000
    0.75000000    0.87500000    0.12500000
    0.75000000    0.87500000    0.25000000
    0.75000000    0.87500000    0.37500000
    0.75000000    0.87500000    0.50000000
    0.75000000    0.87500000    0.62500000
    0.75000000    0.87500000    0.75000000
    0.75000000    0.87500000    0.87500000
    0.87500000    0.00000000    0.00000000
    0.87500000    0.00000000    0.12500000
    0.87500000    0.00000000    0.25000000
    0.87500000    0.00000000    0.37500000
    0.87500000    0.00000000    0.50000000
    0.87500000    0.00000000    0.62500000
    0.87500000    0.00000000    0.75000000
    0.87500000    0.00000000    0.87500000
    0.87500000    0.12500000    0.00000000
    0.87500000    0.12500000    0.12500000
    0.87500000    0.12500000    0.25000000
    0.87500000    0.12500000    0.37500000
    0.87500000    0.12500000    0.50000000
    0.87500000    0.12500000    0.62500000
    0.87500000    0.12500000    0.75000000
    0.87500000    0.12500000    0.87500000
    0.87500000    0.25000000    0.00000000
    0.87500000    0.25000000    0.12500000
    0.87500000    0.25000000    0.25000000
    0.87500000    0.25000000    0.37500000
    0.87500000    0.25000000    0.50000000
    0.87500000    0.25000000    0.62500000
    0.87500000    0.25000000    0.75000000
    0.87500000    0.25000000    0.87500000
    0.87500000    0.37500000    0.00000000
    0.87500000    0.37500000    0.12500000
    0.87500000    0.37500000    0.25000000
    0.87500000    0.37500000    0.37500000
    0.87500000    0.37500000    0.50000000
    0.87500000    0.37500000    0.62500000
    0.87500000    0.37500000    0.75000000
    0.87500000    0.37500000    0.87500000
    0.87500000    0.50000000    0.00000000
    0.87500000    0.50000000    0.12500000
    0.87500000    0.50000000    0.25000000
    0.87500000    0.50000000    0.37500000
    0.87500000    0.50000000    0.50000000
    0.87500000    0.50000000    0.62500000
    0.87500000    0.50000000    0.75000000
    0.87500000    0.50000000    0.87500000
    0.87500000    0.62500000    0.00000000
    0.87500000    0.62500000    0.12500000
    0.87500000    0.62500000    0.25000000
    0.87500000    0.62500000    0.37500000
    0.87500000    0.62500000    0.50000000
    0.87500000    0.62500000    0.62500000
    0.87500000    0.62500000    0.75000000
    0.87500000    0.62500000    0.87500000
    0.87500000    0.75000000    0.00000000
    0.87500000    0.75000000    0.12500000
    0.87500000    0.75000000    0.25000000
    0.87500000    0.75000000    0.37500000
    0.87500000    0.75000000    0.50000000
    0.87500000    0.75000000    0.62500000
    0.87500000    0.75000000    0.75000000
    0.87500000    0.75000000    0.87500000
    0.87500000    0.87500000    0.00000000
    0.87500000    0.87500000    0.12500000
    0.87500000    0.87500000    0.25000000
    0.87500000    0.87500000    0.37500000
    0.87500000    0.87500000    0.50000000
    0.87500000    0.87500000    0.62500000
    0.87500000    0.87500000    0.75000000
    0.87500000    0.87500000    0.87500000
end kpoints
